qbf_easy_train/easy_3912_SAT.qdimacs
p cnf 28 68
a 16 17 19 0
e 1 2 3 4 5 6 7 8 9 10 11 12 13 14 15 18 20 21 22 23 24 25 26 27 28 0
1 2 0
-1 2 0
-2 -1 -3 0
2 1 -3 0
-2 1 3 0
2 -1 3 0
5 4 0
5 -1 0
-4 1 -5 0
-8 7 0
-8 -7 0
-9 -6 0
-9 -8 0
6 8 9 0
10 1 0
10 -9 0
-1 9 -10 0
-5 -10 -11 0
5 10 -11 0
-5 10 11 0
5 -10 11 0
-12 8 0
-12 -4 0
-8 4 12 0
13 -11 0
13 12 0
11 -12 -13 0
15 -2 0
15 14 0
2 -14 -15 0
18 16 0
18 -17 0
-16 17 -18 0
4 18 -19 0
-4 -18 -19 0
4 -18 19 0
-4 18 19 0
-20 -19 0
-20 2 0
19 -2 20 0
-21 15 0
-21 20 0
-15 -20 21 0
23 22 0
23 14 0
-22 -14 -23 0
-24 -21 0
-24 -23 0
21 23 24 0
-25 -7 0
-25 1 0
7 -1 25 0
26 -24 0
26 25 0
24 -25 -26 0
-27 -13 0
-27 -26 0
13 26 27 0
-28 3 0
-28 -27 0
-3 27 28 0
-25 -27 -11 -12 14 2 -4 0
-7 -15 -10 0
9 -28 23 -6 -22 0
20 16 -4 -17 -2 0
-6 -26 17 13 4 0
24 17 22 -5 13 0
28 0
