sat_easy_train/easy_3912_SAT.dimacs
p cnf 102 325
-1 2 -3 0
1 -2 -3 0
-1 -2 3 0
1 2 3 0
-6 -4 0
-6 -5 0
4 5 6 0
7 -3 0
7 6 0
3 -6 -7 0
-9 8 0
-9 5 0
-8 -5 9 0
10 -7 0
10 9 0
7 -9 -10 0
-10 11 -12 0
10 -11 -12 0
-10 -11 12 0
10 11 12 0
14 -13 0
14 -5 0
13 5 -14 0
-16 -14 0
-16 15 0
14 -15 16 0
-15 -1 -17 0
15 1 -17 0
-15 1 17 0
15 -1 17 0
18 17 0
18 15 0
-17 -15 -18 0
20 -19 0
20 -19 0
19 -20 0
20 6 -21 0
-20 -6 -21 0
20 -6 21 0
-20 6 21 0
22 17 0
22 -21 0
-17 21 -22 0
23 18 0
23 22 0
-18 -22 -23 0
-16 -23 -24 0
16 23 -24 0
-16 23 24 0
16 -23 24 0
-25 12 0
-25 24 0
-12 -24 25 0
-27 4 0
-27 26 0
-4 -26 27 0
28 -29 -30 0
-28 29 -30 0
28 29 30 0
-28 -29 30 0
30 -26 -31 0
-30 26 -31 0
30 26 31 0
-30 -26 31 0
31 -32 -33 0
-31 32 -33 0
31 32 33 0
-31 -32 33 0
34 27 0
34 -33 0
-27 33 -34 0
-35 -28 0
-35 15 0
28 -15 35 0
-36 35 0
-36 -2 0
-35 2 36 0
-37 5 0
-37 5 0
-5 37 0
38 36 0
38 37 0
-36 -37 -38 0
38 27 -39 0
-38 -27 -39 0
38 -27 39 0
-38 27 39 0
-34 39 -40 0
34 -39 -40 0
-34 -39 40 0
34 39 40 0
-41 35 0
-41 -33 0
-35 33 41 0
43 -31 0
43 42 0
31 -42 -43 0
44 -17 0
44 -43 0
17 43 -44 0
45 41 0
45 -44 0
-41 44 -45 0
46 45 0
46 -9 0
-45 9 -46 0
47 44 0
47 -37 0
-44 37 -47 0
-48 13 0
-48 -47 0
-13 47 48 0
-49 46 0
-49 48 0
-46 -48 49 0
-50 -40 0
-50 -49 0
40 49 50 0
51 -25 0
51 50 0
25 -50 -51 0
-17 29 -52 0
17 -29 -52 0
-17 -29 52 0
17 29 52 0
53 10 0
53 -35 0
-10 35 -53 0
54 52 0
54 53 0
-52 -53 -54 0
-55 -51 0
-55 54 0
51 -54 55 0
-6 -42 -56 0
6 42 -56 0
-6 42 56 0
6 -42 56 0
-57 42 0
-57 56 0
-42 -56 57 0
-58 -57 0
-58 -14 0
57 14 58 0
-59 -55 0
-59 -58 0
55 58 59 0
-4 -57 -60 0
4 57 -60 0
-4 57 60 0
4 -57 60 0
-61 3 0
-61 43 0
-3 -43 61 0
-4 -32 -62 0
4 32 -62 0
-4 32 62 0
4 -32 62 0
-63 61 0
-63 -62 0
-61 62 63 0
60 -63 -64 0
-60 63 -64 0
60 63 64 0
-60 -63 64 0
65 -56 0
65 31 0
56 -31 -65 0
66 28 0
66 -5 0
-28 5 -66 0
67 -66 0
67 -29 0
66 29 -67 0
69 -68 0
69 10 0
68 -10 -69 0
70 67 0
70 69 0
-67 -69 -70 0
65 -70 -71 0
-65 70 -71 0
65 70 71 0
-65 -70 71 0
72 -5 0
72 -42 0
5 42 -72 0
73 6 0
73 -72 0
-6 72 -73 0
-74 44 0
-74 -72 0
-44 72 74 0
-73 -74 -75 0
73 74 -75 0
-73 74 75 0
73 -74 75 0
71 75 -76 0
-71 -75 -76 0
71 -75 76 0
-71 75 76 0
77 30 0
77 19 0
-30 -19 -77 0
78 -9 0
78 -77 0
9 77 -78 0
79 -1 0
79 36 0
1 -36 -79 0
-80 -79 0
-80 -77 0
79 77 80 0
-82 -81 0
-82 36 0
81 -36 82 0
83 82 0
83 44 0
-82 -44 -83 0
56 83 -84 0
-56 -83 -84 0
56 -83 84 0
-56 83 84 0
85 80 0
85 -84 0
-80 84 -85 0
-78 85 -86 0
78 -85 -86 0
-78 -85 86 0
78 85 86 0
87 76 0
87 86 0
-76 -86 -87 0
88 -64 0
88 87 0
64 -87 -88 0
89 -47 0
89 26 0
47 -26 -89 0
-90 9 0
-90 -35 0
-9 35 90 0
91 30 0
91 42 0
-30 -42 -91 0
-92 35 0
-92 91 0
-35 -91 92 0
2 -29 -93 0
-2 29 -93 0
2 29 93 0
-2 -29 93 0
94 -93 0
94 -66 0
93 66 -94 0
94 -15 -95 0
-94 15 -95 0
94 15 95 0
-94 -15 95 0
-96 -92 0
-96 95 0
92 -95 96 0
90 -96 -97 0
-90 96 -97 0
90 96 97 0
-90 -96 97 0
-98 89 0
-98 -97 0
-89 97 98 0
99 -47 0
99 6 0
47 -6 -99 0
-100 98 0
-100 -99 0
-98 99 100 0
-88 -100 -101 0
88 100 -101 0
-88 100 101 0
88 -100 101 0
102 -59 0
102 101 0
59 -101 -102 0
83 -92 -15 0
32 73 -101 0
12 93 77 -8 40 -65 0
-11 3 50 -47 0
-6 -22 33 32 0
82 -55 -8 26 0
69 60 -90 38 -73 -44 0
30 8 0
11 98 86 -100 46 0
-86 34 17 0
-95 -46 0
-9 67 101 -28 -80 0
-60 -91 44 -40 0
73 -84 -82 29 -76 26 0
51 -87 -76 83 0
-60 9 -87 -2 -23 0
23 -49 42 84 44 -98 0
-54 26 -76 37 -47 -31 0
26 97 -40 96 0
-77 25 21 -92 0
4 29 -69 -79 0
64 51 -21 16 -62 49 0
55 71 98 -72 0
45 91 100 0
52 -10 -66 32 -5 0
-26 88 -28 0
-42 53 29 70 4 0
13 28 -63 87 0
27 94 26 0
-25 26 -27 45 0
44 49 -100 0
-5 -27 0
38 67 -100 -91 0
14 -83 89 -29 0
-32 43 16 -37 0
68 -88 0
23 28 96 81 8 0
101 54 86 42 81 0
45 -38 -68 0
-89 -97 -35 -56 0
-9 -58 18 4 -13 0
-65 98 84 0
102 0
